&GLOBAL
  PROJECT li_ec_overcharge
  RUN_TYPE MD
  PRINT_LEVEL MEDIUM
&END GLOBAL

&FORCE_EVAL
  METHOD QS  ! Quickstep (DFT-based) for force evaluation
  &DFT
    BASIS_SET_FILE_NAME /opt/homebrew/share/cp2k/data/BASIS_MOLOPT
    POTENTIAL_FILE_NAME /opt/homebrew/share/cp2k/data/GTH_POTENTIALS
    CHARGE -2
    MULTIPLICITY 2
    LSD T  ! Enables Unrestricted Kohn-Sham (UKS) for spin-polarized calculation
    &MGRID
      CUTOFF 400  ! Reduced from 400 for efficiency
      REL_CUTOFF 60  ! Reduced from 60
      NGRIDS 4
    &END MGRID
    &QS
      METHOD GPW
      EXTRAPOLATION ASPC
      EXTRAPOLATION_ORDER 3
      EPS_DEFAULT 1.0E-10
      EPS_PGF_ORB 1.0E-8
    &END QS
    &SCF
      SCF_GUESS HISTORY_RESTART  
      EPS_SCF 1.0E-04  ! Loosened from 1.0E-05 for faster convergence
      MAX_SCF 50
      IGNORE_CONVERGENCE_FAILURE  ! Allows continuation if SCF fails
      &OT
        ALGORITHM IRAC
        MINIMIZER CG
        NDIIS 8
        PRECONDITIONER FULL_SINGLE_INVERSE
      &END OT
      &OUTER_SCF
        EPS_SCF 1.0E-04
        MAX_SCF 10
      &END OUTER_SCF
    &END SCF
    &XC
      &XC_FUNCTIONAL PBE
      &END XC_FUNCTIONAL
      &VDW_POTENTIAL
        DISPERSION_FUNCTIONAL PAIR_POTENTIAL
        &PAIR_POTENTIAL
          TYPE DFTD3
          REFERENCE_FUNCTIONAL PBE
          PARAMETER_FILE_NAME ./dftd3.dat
        &END PAIR_POTENTIAL
      &END VDW_POTENTIAL
    &END XC
    &POISSON
      POISSON_SOLVER MULTIPOLE
      PERIODIC NONE
    &END POISSON
  &END DFT

  &SUBSYS
    &CELL
      A 20.0 0.0 0.0
      B 0.0 20.0 0.0
      C 0.0 0.0 20.0
      PERIODIC NONE
    &END CELL
    &TOPOLOGY
      COORD_FILE_FORMAT PDB
      COORD_FILE_NAME ../data/li_ec_lio_bond.pdb
      CONNECTIVITY OFF
    &END TOPOLOGY
    &KIND Li
      BASIS_SET DZVP-MOLOPT-SR-GTH-q3
      POTENTIAL GTH-PBE-q3
      ELEMENT Li
    &END KIND
    &KIND C
      BASIS_SET DZVP-MOLOPT-GTH
      POTENTIAL GTH-PBE-q4
      ELEMENT C
    &END KIND
    &KIND H
      BASIS_SET DZVP-MOLOPT-GTH
      POTENTIAL GTH-PBE-q1
      ELEMENT H
    &END KIND
    &KIND O
      BASIS_SET DZVP-MOLOPT-GTH
      POTENTIAL GTH-PBE-q6
      ELEMENT O
    &END KIND
  &END SUBSYS
&END FORCE_EVAL

&MOTION
  &MD
    ENSEMBLE NVT
    STEPS 15000  
    TIMESTEP 0.1  
    TEMPERATURE 298
    &THERMOSTAT
      TYPE CSVR
      REGION MASSIVE
      &CSVR
        TIMECON 100.0
      &END CSVR
    &END THERMOSTAT
  &END MD
  &PRINT
    &TRAJECTORY
      FILENAME =../results/li_ec-pos.xyz
      &EACH
        MD 1  
      &END EACH
    &END TRAJECTORY
    &VELOCITIES
      FILENAME =../results/li_ec-vel.xyz
      &EACH
        MD 1
      &END EACH
    &END VELOCITIES
    &FORCES
      FILENAME =../results/li_ec-frc.xyz
      &EACH
        MD 1
      &END EACH
    &END FORCES
  &END PRINT
&END MOTION

